63 49 60 65 79 63 13 60 23 72 46 79 63 54 84 47 75 81 82 78 32 65 29 75 97 
52 52 28 23 95 69 13 61 32 68 18 44 65 12 63 86 41 37 61 30 59 14 68 84 94 
32 23 39 11 52 77 20 15 25 75 46 68 53 77 31 87 57 32 30 97 84 72 22 53 97 
16 78 13 96 96 64 60 72 44 69 74 16 33 69 46 18 10 94 47 10 59 12 66 35 45 
15 71 54 37 28 74 88 70 60 44 54 26 18 63 79 22 32 87 12 78 52 22 81 56 97 
660
54 39 15 87 81 52 18 47 83 40 62 17 93 70 14 18 75 80 75 44 61 27 92 70 23 
668
56 32 29 81 98 12 79 92 90 18 32 94 59 50 84 21 45 44 82 10 94 70 63 59 64 
729
96 96 50 15 44 45 64 83 34 20 93 83 10 24 33 25 75 90 47 55 93 16 61 65 17 
667
